Nodes = {"Palo-Alto", "San-Diego", "Boulder", "Washington", "Atlanta", "Urbana-Champaign", "Ann-Arbor", "Lincoln", "Princeton", "Ithaca", "Pittsburgh", "Houston", "Salt-Lake-City", "Seattle"};
Arcs = {<"Palo-Alto","San-Diego",10,48,1>, <"Palo-Alto","Boulder",10,294,0>, <"Palo-Alto","Washington",10,2031,0>, <"Palo-Alto","Atlanta",10,1446,0>, <"Palo-Alto","Urbana-Champaign",10,1159,0>, <"Palo-Alto","Ann-Arbor",10,1517,0>, <"Palo-Alto","Lincoln",10,668,0>, <"Palo-Alto","Princeton",10,2282,0>, <"Palo-Alto","Ithaca",10,2120,0>, <"Palo-Alto","Pittsburgh",10,1814,0>, <"Palo-Alto","Houston",10,782,0>, <"Palo-Alto","Salt-Lake-City",10,121,1>, <"Palo-Alto","Seattle",10,102,1>, <"San-Diego","Palo-Alto",10,48,1>, <"San-Diego","Boulder",10,200,0>, <"San-Diego","Washington",10,1642,0>, <"San-Diego","Atlanta",10,1080,0>, <"San-Diego","Urbana-Champaign",10,896,0>, <"San-Diego","Ann-Arbor",10,1227,0>, <"San-Diego","Lincoln",10,492,0>, <"San-Diego","Princeton",10,1883,0>, <"San-Diego","Ithaca",10,1760,0>, <"San-Diego","Pittsburgh",10,1468,0>, <"San-Diego","Houston",10,487,1>, <"San-Diego","Salt-Lake-City",10,94,0>, <"San-Diego","Seattle",10,249,1>, <"Boulder","Palo-Alto",10,294,0>, <"Boulder","San-Diego",10,200,0>, <"Boulder","Washington",10,794,0>, <"Boulder","Atlanta",10,481,0>, <"Boulder","Urbana-Champaign",10,290,0>, <"Boulder","Ann-Arbor",10,477,0>, <"Boulder","Lincoln",10,77,1>, <"Boulder","Princeton",10,947,0>, <"Boulder","Ithaca",10,838,0>, <"Boulder","Pittsburgh",10,654,0>, <"Boulder","Houston",10,210,1>, <"Boulder","Salt-Lake-City",10,41,1>, <"Boulder","Seattle",10,345,0>, <"Washington","Palo-Alto",10,2031,0>, <"Washington","San-Diego",10,1642,0>, <"Washington","Boulder",10,794,0>, <"Washington","Atlanta",10,78,0>, <"Washington","Urbana-Champaign",10,126,0>, <"Washington","Ann-Arbor",10,54,0>, <"Washington","Lincoln",10,380,0>, <"Washington","Princeton",10,10,1>, <"Washington","Ithaca",10,15,1>, <"Washington","Pittsburgh",10,10,0>, <"Washington","Houston",10,413,1>, <"Washington","Salt-Lake-City",10,1196,0>, <"Washington","Seattle",10,2122,0>, <"Atlanta","Palo-Alto",10,1446,0>, <"Atlanta","San-Diego",10,1080,0>, <"Atlanta","Boulder",10,481,0>, <"Atlanta","Washington",10,78,0>, <"Atlanta","Urbana-Champaign",10,59,0>, <"Atlanta","Ann-Arbor",10,77,0>, <"Atlanta","Lincoln",10,198,0>, <"Atlanta","Princeton",10,143,0>, <"Atlanta","Ithaca",10,141,0>, <"Atlanta","Pittsburgh",10,68,1>, <"Atlanta","Houston",10,136,1>, <"Atlanta","Salt-Lake-City",10,795,0>, <"Atlanta","Seattle",10,1638,0>, <"Urbana-Champaign","Palo-Alto",10,1159,0>, <"Urbana-Champaign","San-Diego",10,896,0>, <"Urbana-Champaign","Boulder",10,290,0>, <"Urbana-Champaign","Washington",10,126,0>, <"Urbana-Champaign","Atlanta",10,59,0>, <"Urbana-Champaign","Ann-Arbor",10,27,0>, <"Urbana-Champaign","Lincoln",10,69,1>, <"Urbana-Champaign","Princeton",10,189,0>, <"Urbana-Champaign","Ithaca",10,145,0>, <"Urbana-Champaign","Pittsburgh",10,73,1>, <"Urbana-Champaign","Houston",10,163,0>, <"Urbana-Champaign","Salt-Lake-City",10,548,0>, <"Urbana-Champaign","Seattle",10,1216,1>, <"Ann-Arbor","Palo-Alto",10,1517,0>, <"Ann-Arbor","San-Diego",10,1227,0>, <"Ann-Arbor","Boulder",10,477,0>, <"Ann-Arbor","Washington",10,54,0>, <"Ann-Arbor","Atlanta",10,77,0>, <"Ann-Arbor","Urbana-Champaign",10,27,0>, <"Ann-Arbor","Lincoln",10,172,0>, <"Ann-Arbor","Princeton",10,86,1>, <"Ann-Arbor","Ithaca",10,51,1>, <"Ann-Arbor","Pittsburgh",10,18,0>, <"Ann-Arbor","Houston",10,300,0>, <"Ann-Arbor","Salt-Lake-City",10,794,1>, <"Ann-Arbor","Seattle",10,1533,0>, <"Lincoln","Palo-Alto",10,668,0>, <"Lincoln","San-Diego",10,492,0>, <"Lincoln","Boulder",10,77,1>, <"Lincoln","Washington",10,380,0>, <"Lincoln","Atlanta",10,198,0>, <"Lincoln","Urbana-Champaign",10,69,1>, <"Lincoln","Ann-Arbor",10,172,0>, <"Lincoln","Princeton",10,485,0>, <"Lincoln","Ithaca",10,408,0>, <"Lincoln","Pittsburgh",10,284,0>, <"Lincoln","Houston",10,123,0>, <"Lincoln","Salt-Lake-City",10,229,0>, <"Lincoln","Seattle",10,714,0>, <"Princeton","Palo-Alto",10,2282,0>, <"Princeton","San-Diego",10,1883,0>, <"Princeton","Boulder",10,947,0>, <"Princeton","Washington",10,10,1>, <"Princeton","Atlanta",10,143,0>, <"Princeton","Urbana-Champaign",10,189,0>, <"Princeton","Ann-Arbor",10,86,1>, <"Princeton","Lincoln",10,485,0>, <"Princeton","Ithaca",10,8,0>, <"Princeton","Pittsburgh",10,27,1>, <"Princeton","Houston",10,549,0>, <"Princeton","Salt-Lake-City",10,1381,0>, <"Princeton","Seattle",10,2340,0>, <"Ithaca","Palo-Alto",10,2120,0>, <"Ithaca","San-Diego",10,1760,0>, <"Ithaca","Boulder",10,838,0>, <"Ithaca","Washington",10,15,1>, <"Ithaca","Atlanta",10,141,0>, <"Ithaca","Urbana-Champaign",10,145,0>, <"Ithaca","Ann-Arbor",10,51,1>, <"Ithaca","Lincoln",10,408,0>, <"Ithaca","Princeton",10,8,0>, <"Ithaca","Pittsburgh",10,15,1>, <"Ithaca","Houston",10,522,0>, <"Ithaca","Salt-Lake-City",10,1246,0>, <"Ithaca","Seattle",10,2136,0>, <"Pittsburgh","Palo-Alto",10,1814,0>, <"Pittsburgh","San-Diego",10,1468,0>, <"Pittsburgh","Boulder",10,654,0>, <"Pittsburgh","Washington",10,10,0>, <"Pittsburgh","Atlanta",10,68,1>, <"Pittsburgh","Urbana-Champaign",10,73,1>, <"Pittsburgh","Ann-Arbor",10,18,0>, <"Pittsburgh","Lincoln",10,284,0>, <"Pittsburgh","Princeton",10,27,1>, <"Pittsburgh","Ithaca",10,15,1>, <"Pittsburgh","Houston",10,361,0>, <"Pittsburgh","Salt-Lake-City",10,1022,0>, <"Pittsburgh","Seattle",10,1870,0>, <"Houston","Palo-Alto",10,782,0>, <"Houston","San-Diego",10,487,1>, <"Houston","Boulder",10,210,1>, <"Houston","Washington",10,413,1>, <"Houston","Atlanta",10,136,1>, <"Houston","Urbana-Champaign",10,163,0>, <"Houston","Ann-Arbor",10,300,0>, <"Houston","Lincoln",10,123,0>, <"Houston","Princeton",10,549,0>, <"Houston","Ithaca",10,522,0>, <"Houston","Pittsburgh",10,361,0>, <"Houston","Salt-Lake-City",10,387,0>, <"Houston","Seattle",10,1050,0>, <"Salt-Lake-City","Palo-Alto",10,121,1>, <"Salt-Lake-City","San-Diego",10,94,0>, <"Salt-Lake-City","Boulder",10,41,1>, <"Salt-Lake-City","Washington",10,1196,0>, <"Salt-Lake-City","Atlanta",10,795,0>, <"Salt-Lake-City","Urbana-Champaign",10,548,0>, <"Salt-Lake-City","Ann-Arbor",10,794,1>, <"Salt-Lake-City","Lincoln",10,229,0>, <"Salt-Lake-City","Princeton",10,1381,0>, <"Salt-Lake-City","Ithaca",10,1246,0>, <"Salt-Lake-City","Pittsburgh",10,1022,0>, <"Salt-Lake-City","Houston",10,387,0>, <"Salt-Lake-City","Seattle",10,162,0>, <"Seattle","Palo-Alto",10,102,1>, <"Seattle","San-Diego",10,249,1>, <"Seattle","Boulder",10,345,0>, <"Seattle","Washington",10,2122,0>, <"Seattle","Atlanta",10,1638,0>, <"Seattle","Urbana-Champaign",10,1216,1>, <"Seattle","Ann-Arbor",10,1533,0>, <"Seattle","Lincoln",10,714,0>, <"Seattle","Princeton",10,2340,0>, <"Seattle","Ithaca",10,2136,0>, <"Seattle","Pittsburgh",10,1870,0>, <"Seattle","Houston",10,1050,0>, <"Seattle","Salt-Lake-City",10,162,0>};
Demands = {<"Palo-Alto","San-Diego",10>, <"Palo-Alto","Boulder",20>, <"Palo-Alto","Washington",30>, <"Palo-Alto","Atlanta",40>, <"Palo-Alto","Urbana-Champaign",50>, <"Palo-Alto","Ann-Arbor",60>, <"Palo-Alto","Lincoln",70>, <"Palo-Alto","Princeton",80>, <"Palo-Alto","Ithaca",90>, <"Palo-Alto","Pittsburgh",100>, <"Palo-Alto","Houston",110>, <"Palo-Alto","Salt-Lake-City",120>, <"Palo-Alto","Seattle",130>, <"San-Diego","Palo-Alto",10>, <"San-Diego","Boulder",10>, <"San-Diego","Washington",20>, <"San-Diego","Atlanta",30>, <"San-Diego","Urbana-Champaign",40>, <"San-Diego","Ann-Arbor",50>, <"San-Diego","Lincoln",60>, <"San-Diego","Princeton",70>, <"San-Diego","Ithaca",80>, <"San-Diego","Pittsburgh",90>, <"San-Diego","Houston",100>, <"San-Diego","Salt-Lake-City",110>, <"San-Diego","Seattle",120>, <"Boulder","Palo-Alto",20>, <"Boulder","San-Diego",10>, <"Boulder","Washington",10>, <"Boulder","Atlanta",20>, <"Boulder","Urbana-Champaign",30>, <"Boulder","Ann-Arbor",40>, <"Boulder","Lincoln",50>, <"Boulder","Princeton",60>, <"Boulder","Ithaca",70>, <"Boulder","Pittsburgh",80>, <"Boulder","Houston",90>, <"Boulder","Salt-Lake-City",100>, <"Boulder","Seattle",110>, <"Washington","Palo-Alto",30>, <"Washington","San-Diego",20>, <"Washington","Boulder",10>, <"Washington","Atlanta",10>, <"Washington","Urbana-Champaign",20>, <"Washington","Ann-Arbor",30>, <"Washington","Lincoln",40>, <"Washington","Princeton",50>, <"Washington","Ithaca",60>, <"Washington","Pittsburgh",70>, <"Washington","Houston",80>, <"Washington","Salt-Lake-City",90>, <"Washington","Seattle",100>, <"Atlanta","Palo-Alto",40>, <"Atlanta","San-Diego",30>, <"Atlanta","Boulder",20>, <"Atlanta","Washington",10>, <"Atlanta","Urbana-Champaign",10>, <"Atlanta","Ann-Arbor",20>, <"Atlanta","Lincoln",30>, <"Atlanta","Princeton",40>, <"Atlanta","Ithaca",50>, <"Atlanta","Pittsburgh",60>, <"Atlanta","Houston",70>, <"Atlanta","Salt-Lake-City",80>, <"Atlanta","Seattle",90>, <"Urbana-Champaign","Palo-Alto",50>, <"Urbana-Champaign","San-Diego",40>, <"Urbana-Champaign","Boulder",30>, <"Urbana-Champaign","Washington",20>, <"Urbana-Champaign","Atlanta",10>, <"Urbana-Champaign","Ann-Arbor",10>, <"Urbana-Champaign","Lincoln",20>, <"Urbana-Champaign","Princeton",30>, <"Urbana-Champaign","Ithaca",40>, <"Urbana-Champaign","Pittsburgh",50>, <"Urbana-Champaign","Houston",60>, <"Urbana-Champaign","Salt-Lake-City",70>, <"Urbana-Champaign","Seattle",80>, <"Ann-Arbor","Palo-Alto",60>, <"Ann-Arbor","San-Diego",50>, <"Ann-Arbor","Boulder",40>, <"Ann-Arbor","Washington",30>, <"Ann-Arbor","Atlanta",20>, <"Ann-Arbor","Urbana-Champaign",10>, <"Ann-Arbor","Lincoln",10>, <"Ann-Arbor","Princeton",20>, <"Ann-Arbor","Ithaca",30>, <"Ann-Arbor","Pittsburgh",40>, <"Ann-Arbor","Houston",50>, <"Ann-Arbor","Salt-Lake-City",60>, <"Ann-Arbor","Seattle",70>, <"Lincoln","Palo-Alto",70>, <"Lincoln","San-Diego",60>, <"Lincoln","Boulder",50>, <"Lincoln","Washington",40>, <"Lincoln","Atlanta",30>, <"Lincoln","Urbana-Champaign",20>, <"Lincoln","Ann-Arbor",10>, <"Lincoln","Princeton",10>, <"Lincoln","Ithaca",20>, <"Lincoln","Pittsburgh",30>, <"Lincoln","Houston",40>, <"Lincoln","Salt-Lake-City",50>, <"Lincoln","Seattle",60>, <"Princeton","Palo-Alto",80>, <"Princeton","San-Diego",70>, <"Princeton","Boulder",60>, <"Princeton","Washington",50>, <"Princeton","Atlanta",40>, <"Princeton","Urbana-Champaign",30>, <"Princeton","Ann-Arbor",20>, <"Princeton","Lincoln",10>, <"Princeton","Ithaca",10>, <"Princeton","Pittsburgh",20>, <"Princeton","Houston",30>, <"Princeton","Salt-Lake-City",40>, <"Princeton","Seattle",50>, <"Ithaca","Palo-Alto",90>, <"Ithaca","San-Diego",80>, <"Ithaca","Boulder",70>, <"Ithaca","Washington",60>, <"Ithaca","Atlanta",50>, <"Ithaca","Urbana-Champaign",40>, <"Ithaca","Ann-Arbor",30>, <"Ithaca","Lincoln",20>, <"Ithaca","Princeton",10>, <"Ithaca","Pittsburgh",10>, <"Ithaca","Houston",20>, <"Ithaca","Salt-Lake-City",30>, <"Ithaca","Seattle",40>, <"Pittsburgh","Palo-Alto",100>, <"Pittsburgh","San-Diego",90>, <"Pittsburgh","Boulder",80>, <"Pittsburgh","Washington",70>, <"Pittsburgh","Atlanta",60>, <"Pittsburgh","Urbana-Champaign",50>, <"Pittsburgh","Ann-Arbor",40>, <"Pittsburgh","Lincoln",30>, <"Pittsburgh","Princeton",20>, <"Pittsburgh","Ithaca",10>, <"Pittsburgh","Houston",10>, <"Pittsburgh","Salt-Lake-City",20>, <"Pittsburgh","Seattle",30>, <"Houston","Palo-Alto",110>, <"Houston","San-Diego",100>, <"Houston","Boulder",90>, <"Houston","Washington",80>, <"Houston","Atlanta",70>, <"Houston","Urbana-Champaign",60>, <"Houston","Ann-Arbor",50>, <"Houston","Lincoln",40>, <"Houston","Princeton",30>, <"Houston","Ithaca",20>, <"Houston","Pittsburgh",10>, <"Houston","Salt-Lake-City",10>, <"Houston","Seattle",20>, <"Salt-Lake-City","Palo-Alto",120>, <"Salt-Lake-City","San-Diego",110>, <"Salt-Lake-City","Boulder",100>, <"Salt-Lake-City","Washington",90>, <"Salt-Lake-City","Atlanta",80>, <"Salt-Lake-City","Urbana-Champaign",70>, <"Salt-Lake-City","Ann-Arbor",60>, <"Salt-Lake-City","Lincoln",50>, <"Salt-Lake-City","Princeton",40>, <"Salt-Lake-City","Ithaca",30>, <"Salt-Lake-City","Pittsburgh",20>, <"Salt-Lake-City","Houston",10>, <"Salt-Lake-City","Seattle",10>, <"Seattle","Palo-Alto",130>, <"Seattle","San-Diego",120>, <"Seattle","Boulder",110>, <"Seattle","Washington",100>, <"Seattle","Atlanta",90>, <"Seattle","Urbana-Champaign",80>, <"Seattle","Ann-Arbor",70>, <"Seattle","Lincoln",60>, <"Seattle","Princeton",50>, <"Seattle","Ithaca",40>, <"Seattle","Pittsburgh",30>, <"Seattle","Houston",20>, <"Seattle","Salt-Lake-City",10>};
